p ds 20 5
1 10
1 12
1 18
1 20
2 4
2 9
2 14
2 16
2 19
3 4
3 6
3 7
3 8
3 9
3 16
3 17
4 5
4 6
4 7
4 11
4 12
4 16
5 6
5 7
5 8
5 9
5 12
5 13
5 14
5 15
5 16
5 20
6 7
6 8
6 9
6 10
6 11
6 17
7 8
7 11
7 14
7 15
7 17
8 9
8 11
8 12
8 20
9 13
9 15
9 18
10 11
10 14
10 15
10 16
10 17
10 18
11 12
11 14
11 15
11 16
12 13
12 14
12 16
12 19
12 20
13 14
13 15
14 15
14 16
14 19
14 20
15 19
16 18
17 18
17 19
17 20
19 20
